
  32    4
  10   10   10   10

   0   0   0   0   0   2 2 4 
   5   1   1   0   1   3 10 6 3 
   4   2   6   0   1   3 13 7 5 
   8   8   5   0   7   4 13 10 9 8 
   4   2   4   0   2   3 20 9 8 
   7   6   0   1   6   3 20 11 9 
   6   3   3   0   5   3 17 15 11 
   4   4   0   7   5   2 15 11 
   1   6   5   6   0   3 17 15 14 
   8   3   3   8   0   2 15 12 
  10   4   0   4   3   1 12 
   4   4   5   6   0   2 19 14 
   8   4   8   0   4   2 19 14 
   5   5   5   4   0   2 24 16 
   4   0   5   2   4   3 24 19 18 
   4   0   2   6   2   2 29 18 
   9   0   5   2   7   2 29 18 
  10   0   7   2   6   3 28 25 21 
   1   3   4   0   3   3 28 25 21 
   1   5   4   0   1   3 28 25 21 
   4   1   2   4   0   1 22 
   3   3   2   0   4   1 23 
   1   5   6   2   0   2 27 26 
   5   3   4   0   6   2 27 26 
   9   0   3   3   6   1 26 
   2   6   3   7   0   1 30 
   5   0   2   1   2   1 30 
   1   6   0   2   3   1 30 
   6   0   5   6   2   1 30 
   8   4   0   3   5   1 31 
   9   4   1   0   7   1 32
   0   0   0   0   0   0 
